
Gurobi 6.5.2 (linux64) logging started Mon Aug 29 10:57:52 2016

Optimize a model with 101 rows, 418 columns and 865 nonzeros
Coefficient statistics:
  Matrix range    [1e+00, 2e+00]
  Objective range [1e+00, 1e+02]
  Bounds range    [1e+00, 1e+00]
  RHS range       [1e+00, 1e+00]
Found heuristic solution: objective 2425
Presolve removed 40 rows and 27 columns
Presolve time: 0.00s
Presolved: 61 rows, 391 columns, 787 nonzeros
Variable types: 0 continuous, 391 integer (391 binary)

Root relaxation: objective 1.147500e+03, 66 iterations, 0.00 seconds

    Nodes    |    Current Node    |     Objective Bounds      |     Work
 Expl Unexpl |  Obj  Depth IntInf | Incumbent    BestBd   Gap | It/Node Time

     0     0 1147.50000    0    8 2425.00000 1147.50000  52.7%     -    0s
H    0     0                    1276.0000000 1147.50000  10.1%     -    0s
H    0     0                    1194.0000000 1147.50000  3.89%     -    0s
H    0     0                    1162.0000000 1147.50000  1.25%     -    0s
     0     0 1155.50000    0   16 1162.00000 1155.50000  0.56%     -    0s
     0     0 1155.50000    0   10 1162.00000 1155.50000  0.56%     -    0s
     0     0 1158.50000    0   17 1162.00000 1158.50000  0.30%     -    0s
H    0     0                    1161.0000000 1158.50000  0.22%     -    0s

Cutting planes:
  Gomory: 3
  Cover: 4
  Clique: 7
  Zero half: 1

Explored 0 nodes (152 simplex iterations) in 0.01 seconds
Thread count was 8 (of 8 available processors)

Optimal solution found (tolerance 1.00e-04)
Best objective 1.161000000000e+03, best bound 1.161000000000e+03, gap 0.0%
